* ENCODING=ISO-8859-1
NAME          CPLEX
ROWS
 N  obj1    
 G  c1      
 G  c2      
 G  c3      
 G  c4      
 G  c5      
 G  c6      
 G  c7      
 G  c8      
 G  c9      
 G  c10     
 G  c11     
 G  c12     
 G  c13     
 G  c14     
 G  c15     
 G  c16     
 G  c17     
 G  c18     
 G  c19     
 G  c20     
 G  c21     
 G  c22     
 G  c23     
 G  c24     
 G  c25     
 G  c26     
 G  c27     
 G  c28     
 G  c29     
 G  c30     
 G  c31     
 G  c32     
 G  c33     
 G  c34     
 G  c35     
 G  c36     
 G  c37     
 G  c38     
 G  c39     
 G  c40     
 G  c41     
 G  c42     
 G  c43     
 G  c44     
 G  c45     
 G  c46     
 G  c47     
 G  c48     
 G  c49     
 G  c50     
 G  c51     
 G  c52     
 G  c53     
 G  c54     
 G  c55     
 G  c56     
 G  c57     
 G  c58     
 G  c59     
 G  c60     
COLUMNS
    MARK0000  'MARKER'                 'INTORG'
    x1        obj1                            1
    x1        c5                            189
    x1        c10                           553
    x1        c12                           391
    x1        c24                           296
    x1        c27                           143
    x1        c28                           337
    x1        c31                           697
    x1        c45                           804
    x1        c47                           867
    x2        obj1                            1
    x2        c15                           982
    x2        c19                           902
    x2        c40                           487
    x2        c44                           581
    x2        c60                           841
    x3        obj1                            1
    x3        c2                            767
    x3        c6                            215
    x3        c13                           969
    x3        c28                           625
    x3        c31                           726
    x3        c33                           363
    x3        c47                           417
    x3        c59                           108
    x4        obj1                            1
    x4        c2                            406
    x4        c8                            879
    x4        c17                           909
    x4        c23                           601
    x4        c34                           177
    x4        c44                           372
    x4        c52                           246
    x5        obj1                            1
    x5        c6                            537
    x5        c21                           720
    x5        c57                           830
    x5        c60                           766
    x6        obj1                            1
    x6        c3                            642
    x6        c17                           649
    x6        c39                           518
    x6        c45                           234
    x7        obj1                            1
    x7        c20                           635
    x7        c29                           767
    x7        c47                           345
    x7        c52                           267
    x8        obj1                            1
    x8        c7                            101
    x8        c10                           520
    x8        c24                           635
    x8        c26                           776
    x8        c28                           282
    x8        c31                           990
    x8        c59                           784
    x9        obj1                            1
    x9        c18                           561
    x9        c24                           426
    x9        c37                           756
    x9        c50                           441
    x9        c53                           559
    x9        c60                           648
    x10       obj1                            1
    x10       c6                            222
    x10       c12                           149
    x10       c27                           767
    x10       c48                           209
    x11       obj1                            1
    x11       c17                           259
    x11       c22                           722
    x11       c26                           453
    x11       c60                           688
    x12       obj1                            1
    x12       c9                            333
    x12       c18                           614
    x12       c25                           285
    x12       c42                           854
    x12       c56                           438
    x13       obj1                            1
    x13       c23                           832
    x13       c39                           410
    x13       c46                           960
    x14       obj1                            1
    x14       c30                           113
    x14       c42                           609
    x14       c48                           563
    x14       c54                           541
    x14       c55                           762
    x15       obj1                            1
    x15       c2                            949
    x15       c30                           827
    x15       c32                           669
    x15       c36                           288
    x15       c43                           314
    x15       c46                           153
    x15       c52                           453
    x15       c57                           797
    x16       obj1                            1
    x16       c3                            839
    x16       c5                            626
    x16       c18                           101
    x16       c30                           784
    x16       c44                           106
    x16       c56                           445
    x16       c60                           885
    x17       obj1                            1
    x17       c1                            422
    x17       c6                            657
    x17       c14                           154
    x17       c20                           807
    x17       c25                           346
    x17       c49                           533
    x17       c53                           624
    x18       obj1                            1
    x18       c17                           212
    x18       c22                           497
    x18       c23                           368
    x18       c29                           149
    x18       c31                           475
    x18       c32                           594
    x18       c42                           347
    x18       c43                           666
    x18       c53                           235
    x18       c54                           835
    x19       obj1                            1
    x19       c7                            371
    x19       c15                           812
    x19       c19                           538
    x19       c21                           982
    x19       c38                           822
    x19       c40                           815
    x19       c50                           470
    x20       obj1                            1
    x20       c11                           371
    x20       c19                           860
    x20       c20                           277
    x20       c34                           128
    x20       c43                           957
    x20       c49                           371
    x20       c53                           760
    x20       c58                           190
    x21       obj1                            1
    x21       c21                           914
    x21       c24                           815
    x21       c49                           775
    x21       c50                           169
    x22       obj1                            1
    x22       c8                            820
    x22       c27                           600
    x22       c49                           654
    x22       c52                           187
    x22       c58                           195
    x23       obj1                            1
    x23       c3                            822
    x23       c6                            133
    x23       c25                           656
    x23       c28                           401
    x24       obj1                            1
    x24       c2                            282
    x24       c6                            907
    x25       obj1                            1
    x25       c42                           347
    x25       c46                           524
    x25       c51                           585
    x25       c55                           857
    x26       obj1                            1
    x26       c6                            653
    x26       c11                           571
    x26       c12                           910
    x26       c17                           507
    x26       c24                           760
    x26       c26                           710
    x26       c28                           869
    x26       c36                           122
    x26       c41                           324
    x26       c47                           801
    x26       c50                           245
    x26       c55                           868
    x27       obj1                            1
    x27       c15                           635
    x27       c18                           896
    x27       c21                           325
    x27       c25                           198
    x27       c43                           652
    x27       c50                           975
    x27       c51                           954
    x27       c56                           753
    x27       c57                           965
    x28       obj1                            1
    x28       c9                            636
    x28       c12                           180
    x28       c33                           450
    x28       c52                           347
    x29       obj1                            1
    x29       c2                            506
    x30       obj1                            1
    x30       c6                            667
    x30       c12                           423
    x30       c23                           341
    x30       c30                           646
    x30       c32                           306
    x30       c33                           834
    x30       c52                           477
    x30       c57                           300
    x30       c60                           547
    x31       obj1                            1
    x31       c22                           381
    x31       c52                           932
    x32       obj1                            1
    x32       c4                            246
    x32       c29                           501
    x32       c36                           448
    x32       c37                           638
    x32       c40                           980
    x33       obj1                            1
    x33       c7                            718
    x33       c8                            801
    x33       c10                           728
    x33       c19                           874
    x33       c27                           842
    x33       c33                           571
    x33       c43                           310
    x33       c46                           871
    x33       c58                           401
    x34       obj1                            1
    x34       c35                           159
    x34       c50                           273
    x34       c51                           920
    x34       c53                           539
    x35       obj1                            1
    x35       c5                            957
    x35       c7                            942
    x35       c12                           444
    x35       c25                           719
    x35       c57                           109
    x35       c60                           691
    x36       obj1                            1
    x36       c4                            437
    x36       c12                           434
    x36       c15                           484
    x36       c25                           674
    x36       c28                           983
    x36       c30                           534
    x36       c31                           724
    x36       c36                           944
    x36       c42                           309
    x36       c57                           471
    x36       c58                           718
    x37       obj1                            1
    x37       c10                           487
    x37       c19                           961
    x37       c21                           233
    x37       c28                           161
    x37       c39                           573
    x37       c40                           251
    x37       c58                           796
    x38       obj1                            1
    x38       c16                           593
    x38       c26                           923
    x38       c27                           106
    x38       c48                           967
    x38       c51                           482
    x38       c52                           875
    x39       obj1                            1
    x39       c6                            181
    x39       c20                           415
    x39       c31                           909
    x39       c35                           953
    x39       c36                           573
    x39       c39                           437
    x39       c42                           669
    x39       c51                           916
    x39       c58                           239
    x40       obj1                            1
    x40       c16                           391
    x40       c17                           990
    x40       c20                           204
    x40       c23                           190
    x40       c26                           627
    x40       c35                           619
    x40       c58                           310
    x41       obj1                            1
    x41       c25                           543
    x41       c34                           720
    x41       c49                           133
    x41       c54                           202
    x42       obj1                            1
    x42       c1                            772
    x42       c8                            480
    x42       c12                           661
    x42       c26                           895
    x42       c31                           255
    x42       c36                           178
    x43       obj1                            1
    x43       c16                           157
    x43       c43                           836
    x43       c50                           330
    x44       obj1                            1
    x44       c1                            534
    x44       c20                           199
    x44       c32                           155
    x44       c34                           216
    x44       c56                           591
    x44       c59                           842
    x45       obj1                            1
    x45       c28                           515
    x45       c35                           127
    x45       c40                           940
    x45       c44                           497
    x45       c49                           610
    x45       c53                           955
    x46       obj1                            1
    x46       c9                            111
    x46       c41                           312
    x46       c45                           565
    x47       obj1                            1
    x47       c4                            835
    x47       c5                            539
    x47       c7                            862
    x47       c37                           427
    x47       c38                           466
    x47       c57                           841
    x48       obj1                            1
    x48       c7                            423
    x48       c15                           918
    x48       c18                           644
    x48       c30                           290
    x48       c44                           571
    x48       c54                           998
    x48       c55                           642
    x49       obj1                            1
    x49       c4                            183
    x49       c26                           265
    x49       c28                           446
    x49       c31                           621
    x49       c32                           816
    x49       c34                           110
    x49       c56                           674
    x49       c60                           484
    x50       obj1                            1
    x50       c4                            363
    x50       c18                           638
    x50       c20                           812
    x50       c23                           845
    x51       obj1                            1
    x51       c3                            900
    x51       c15                           724
    x51       c29                           883
    x51       c33                           644
    x51       c57                           303
    x52       obj1                            1
    x52       c7                            120
    x52       c15                           165
    x52       c25                           414
    x52       c50                           285
    x52       c59                           576
    x53       obj1                            1
    x53       c3                            480
    x53       c4                            471
    x53       c35                           885
    x53       c41                           173
    x53       c42                           387
    x54       obj1                            1
    x54       c13                           837
    x54       c14                           756
    x54       c53                           393
    x54       c58                           328
    x55       obj1                            1
    x55       c7                            590
    x55       c16                           233
    x55       c23                           528
    x55       c25                           234
    x55       c36                           735
    x55       c41                           300
    x55       c42                           470
    x56       obj1                            1
    x56       c2                            706
    x56       c3                            455
    x56       c5                            777
    x56       c15                           379
    x56       c30                           175
    x56       c33                           504
    x56       c34                           556
    x56       c41                           124
    x56       c42                           811
    x56       c48                           773
    x56       c56                           988
    x57       obj1                            1
    x57       c3                            259
    x57       c4                            671
    x57       c9                            163
    x57       c18                           134
    x57       c20                           948
    x57       c27                           688
    x57       c38                           429
    x58       obj1                            1
    x58       c33                           420
    x58       c53                           447
    x59       obj1                            1
    x59       c9                            528
    x59       c11                           552
    x59       c13                           351
    x59       c26                           937
    x59       c27                           377
    x59       c44                           323
    x59       c45                           990
    x60       obj1                            1
    x60       c1                            811
    x60       c7                            438
    x60       c14                           714
    x60       c23                           547
    x60       c34                           770
    x60       c50                           455
    x60       c58                           521
    MARK0001  'MARKER'                 'INTEND'
RHS
    rhs       c1                           1270
    rhs       c2                           1808
    rhs       c3                           2199
    rhs       c4                           1603
    rhs       c5                           1544
    rhs       c6                           2086
    rhs       c7                           2283
    rhs       c8                           1490
    rhs       c9                            886
    rhs       c10                          1144
    rhs       c11                           747
    rhs       c12                          1796
    rhs       c13                          1079
    rhs       c14                           812
    rhs       c15                          2550
    rhs       c16                           687
    rhs       c17                          1763
    rhs       c18                          1794
    rhs       c19                          2068
    rhs       c20                          2149
    rhs       c21                          1587
    rhs       c22                           800
    rhs       c23                          2126
    rhs       c24                          1466
    rhs       c25                          2035
    rhs       c26                          2793
    rhs       c27                          1762
    rhs       c28                          2310
    rhs       c29                          1150
    rhs       c30                          1685
    rhs       c31                          2699
    rhs       c32                          1270
    rhs       c33                          1893
    rhs       c34                          1339
    rhs       c35                          1372
    rhs       c36                          1644
    rhs       c37                           911
    rhs       c38                           859
    rhs       c39                           969
    rhs       c40                          1737
    rhs       c41                           617
    rhs       c42                          2402
    rhs       c43                          1868
    rhs       c44                          1225
    rhs       c45                          1297
    rhs       c46                          1254
    rhs       c47                          1215
    rhs       c48                          1256
    rhs       c49                          1538
    rhs       c50                          1822
    rhs       c51                          1929
    rhs       c52                          1892
    rhs       c53                          2256
    rhs       c54                          1288
    rhs       c55                          1565
    rhs       c56                          1945
    rhs       c57                          2308
    rhs       c58                          1849
    rhs       c59                          1155
    rhs       c60                          2775
BOUNDS
 LI bnd       x1        0
 LI bnd       x2        0
 LI bnd       x3        0
 LI bnd       x4        0
 LI bnd       x5        0
 LI bnd       x6        0
 LI bnd       x7        0
 LI bnd       x8        0
 LI bnd       x9        0
 LI bnd       x10       0
 LI bnd       x11       0
 LI bnd       x12       0
 LI bnd       x13       0
 LI bnd       x14       0
 LI bnd       x15       0
 LI bnd       x16       0
 LI bnd       x17       0
 LI bnd       x18       0
 LI bnd       x19       0
 LI bnd       x20       0
 LI bnd       x21       0
 LI bnd       x22       0
 LI bnd       x23       0
 LI bnd       x24       0
 LI bnd       x25       0
 LI bnd       x26       0
 LI bnd       x27       0
 LI bnd       x28       0
 LI bnd       x29       0
 LI bnd       x30       0
 LI bnd       x31       0
 LI bnd       x32       0
 LI bnd       x33       0
 LI bnd       x34       0
 LI bnd       x35       0
 LI bnd       x36       0
 LI bnd       x37       0
 LI bnd       x38       0
 LI bnd       x39       0
 LI bnd       x40       0
 LI bnd       x41       0
 LI bnd       x42       0
 LI bnd       x43       0
 LI bnd       x44       0
 LI bnd       x45       0
 LI bnd       x46       0
 LI bnd       x47       0
 LI bnd       x48       0
 LI bnd       x49       0
 LI bnd       x50       0
 LI bnd       x51       0
 LI bnd       x52       0
 LI bnd       x53       0
 LI bnd       x54       0
 LI bnd       x55       0
 LI bnd       x56       0
 LI bnd       x57       0
 LI bnd       x58       0
 LI bnd       x59       0
 LI bnd       x60       0
ENDATA
